************************************************************************
file with basedata            : mm45_.bas
initial value random generator: 1060761169
************************************************************************
projects                      :  1
jobs (incl. supersource/sink ):  12
horizon                       :  77
RESOURCES
  - renewable                 :  2   R
  - nonrenewable              :  2   N
  - doubly constrained        :  0   D
************************************************************************
PROJECT INFORMATION:
pronr.  #jobs rel.date duedate tardcost  MPM-Time
    1     10      0       12        8       12
************************************************************************
PRECEDENCE RELATIONS:
jobnr.    #modes  #successors   successors
   0        1          3           1   2   3
   1        3          1           4
   2        3          2           8   9
   3        3          1          10
   4        3          3           5   6   7
   5        3          1           9
   6        3          3           8   9  10
   7        3          1          10
   8        3          1          11
   9        3          1          11
  10        3          1          11
  11        1          0        
************************************************************************
REQUESTS/DURATIONS:
jobnr. mode duration  R 1  R 2  R 3  R 4  E(W 1)  E(W 2)
------------------------------------------------------------------------
  0      1     0       0    0    0    0     0       0
  1      1     6       7   10    8    7    102      90
  2      1     1       9    1    6    8    11      14
  3      1     1       7    4   10    5    11      15
  4      1     1      10    9    4    8    19      12
  5      1     1       8    9    6    7    17      13
  6      1     1       5    8    5    2    13       7
  7      1     1       5    9    3    7    14      10
  8      1     4       8    8    7    9    64      64
  9      1     1       9    9    6    9    18      15
 10      1     2       7    6    8    6    26      28
 11      1     0       0    0    0    0     0       0
************************************************************************
RESOURCEAVAILABILITIES:
  R 1  R 2
   33   98
************************************************************************
RESOURCE LIMITS:
jobnr.  l(R 1)  u(R 1)  l(R 2)  u(R 2)
------------------------------------------------------------------------
  0        0       0       0       0
  1        9      17       8      15
  2        6      11       7      14
  3        6      11       8      15
  4       10      19       6      12
  5        9      17       7      13
  6        7      13       4       7
  7        8      14       6      10
  8        8      16       9      16
  9       10      18       8      15
 10        7      13       7      14
 11        0       0       0       0
************************************************************************
SCENARIOS:
------------------------------------------------------------------------
RESOURCE k = 1
s = 1: (0, 123, 9, 15, 18, 14, 13, 18, 83, 18, 18, 0)
s = 2: (0, 69, 13, 8, 19, 15, 16, 18, 47, 26, 40, 0)
s = 3: (0, 77, 15, 9, 14, 23, 15, 14, 62, 14, 20, 0)
s = 4: (0, 114, 10, 15, 20, 13, 20, 18, 49, 14, 28, 0)
s = 5: (0, 107, 15, 16, 22, 20, 9, 12, 76, 22, 28, 0)
s = 6: (0, 114, 11, 12, 19, 15, 10, 12, 75, 19, 26, 0)
s = 7: (0, 72, 11, 10, 21, 19, 12, 14, 85, 19, 36, 0)
s = 8: (0, 75, 14, 10, 19, 12, 17, 13, 46, 23, 29, 0)
s = 9: (0, 66, 13, 11, 29, 24, 18, 15, 81, 15, 23, 0)
s = 10: (0, 142, 8, 8, 12, 23, 12, 16, 61, 21, 26, 0)
s = 11: (0, 73, 11, 13, 20, 14, 7, 16, 70, 17, 21, 0)
s = 12: (0, 92, 11, 14, 22, 21, 15, 12, 96, 11, 31, 0)
s = 13: (0, 116, 11, 11, 23, 14, 14, 12, 79, 25, 31, 0)
s = 14: (0, 136, 13, 9, 15, 15, 16, 11, 67, 15, 21, 0)
s = 15: (0, 146, 7, 11, 18, 11, 21, 18, 72, 17, 35, 0)
s = 16: (0, 93, 15, 14, 13, 20, 10, 15, 55, 29, 27, 0)
s = 17: (0, 92, 8, 15, 20, 20, 10, 14, 40, 17, 19, 0)
s = 18: (0, 67, 7, 11, 14, 25, 15, 17, 58, 23, 19, 0)
s = 19: (0, 155, 12, 15, 26, 14, 8, 13, 71, 14, 36, 0)
s = 20: (0, 122, 7, 16, 16, 21, 20, 16, 55, 27, 23, 0)
s = 21: (0, 155, 11, 9, 23, 12, 14, 19, 59, 16, 22, 0)
s = 22: (0, 172, 8, 11, 16, 18, 16, 18, 72, 23, 36, 0)
s = 23: (0, 55, 8, 11, 12, 17, 20, 16, 47, 16, 21, 0)
s = 24: (0, 96, 15, 14, 25, 24, 14, 17, 51, 17, 37, 0)
s = 25: (0, 122, 10, 8, 25, 12, 13, 13, 46, 18, 25, 0)
s = 26: (0, 145, 11, 18, 20, 17, 18, 16, 83, 23, 26, 0)
s = 27: (0, 106, 11, 7, 18, 19, 10, 20, 89, 18, 26, 0)
s = 28: (0, 77, 14, 11, 11, 20, 14, 21, 76, 17, 26, 0)
s = 29: (0, 90, 14, 10, 16, 24, 8, 9, 51, 16, 29, 0)
s = 30: (0, 95, 9, 16, 18, 16, 12, 9, 48, 18, 48, 0)
s = 31: (0, 119, 7, 8, 22, 15, 13, 8, 54, 14, 32, 0)
s = 32: (0, 73, 10, 17, 20, 23, 16, 14, 69, 30, 33, 0)
s = 33: (0, 114, 8, 12, 23, 20, 9, 11, 60, 18, 26, 0)
s = 34: (0, 75, 9, 13, 23, 17, 17, 15, 59, 18, 37, 0)
s = 35: (0, 74, 9, 12, 19, 16, 10, 11, 71, 29, 22, 0)
s = 36: (0, 141, 15, 13, 17, 31, 14, 14, 53, 16, 23, 0)
s = 37: (0, 118, 10, 14, 24, 30, 17, 12, 57, 14, 17, 0)
s = 38: (0, 136, 9, 15, 19, 14, 21, 11, 67, 12, 20, 0)
s = 39: (0, 80, 10, 16, 13, 19, 17, 12, 74, 26, 27, 0)
s = 40: (0, 126, 8, 7, 22, 13, 12, 21, 72, 10, 19, 0)
s = 41: (0, 116, 11, 7, 20, 18, 14, 17, 58, 21, 28, 0)
s = 42: (0, 93, 15, 7, 16, 14, 16, 16, 97, 19, 19, 0)
s = 43: (0, 121, 10, 9, 18, 14, 16, 22, 65, 19, 26, 0)
s = 44: (0, 85, 10, 11, 13, 11, 15, 10, 73, 19, 21, 0)
s = 45: (0, 95, 14, 17, 20, 15, 19, 11, 40, 14, 31, 0)
s = 46: (0, 93, 8, 12, 31, 13, 11, 19, 50, 22, 16, 0)
s = 47: (0, 156, 15, 17, 13, 15, 12, 19, 88, 27, 31, 0)
s = 48: (0, 158, 10, 8, 20, 20, 15, 16, 57, 13, 17, 0)
s = 49: (0, 92, 9, 16, 29, 23, 11, 16, 55, 16, 26, 0)
s = 50: (0, 149, 15, 9, 18, 22, 10, 13, 54, 12, 18, 0)
s = 51: (0, 70, 8, 13, 18, 14, 12, 10, 64, 24, 26, 0)
s = 52: (0, 109, 11, 14, 22, 17, 19, 15, 73, 16, 21, 0)
s = 53: (0, 111, 9, 9, 26, 22, 15, 11, 83, 14, 41, 0)
s = 54: (0, 145, 9, 7, 24, 11, 10, 21, 71, 21, 24, 0)
s = 55: (0, 105, 8, 7, 29, 20, 15, 10, 59, 22, 28, 0)
s = 56: (0, 79, 8, 11, 17, 24, 16, 20, 43, 12, 25, 0)
s = 57: (0, 75, 9, 10, 26, 22, 11, 11, 45, 21, 53, 0)
s = 58: (0, 110, 11, 11, 15, 17, 19, 14, 45, 13, 17, 0)
s = 59: (0, 135, 15, 10, 14, 24, 17, 11, 65, 22, 50, 0)
s = 60: (0, 173, 13, 9, 14, 18, 13, 21, 40, 13, 25, 0)
s = 61: (0, 82, 13, 9, 24, 24, 15, 17, 35, 25, 29, 0)
s = 62: (0, 133, 14, 10, 19, 15, 12, 14, 73, 19, 32, 0)
s = 63: (0, 119, 15, 10, 12, 24, 9, 10, 76, 21, 33, 0)
s = 64: (0, 146, 12, 8, 26, 19, 14, 9, 67, 14, 19, 0)
s = 65: (0, 85, 12, 11, 14, 19, 16, 15, 37, 13, 22, 0)
s = 66: (0, 91, 9, 12, 22, 12, 16, 14, 99, 12, 25, 0)
s = 67: (0, 129, 12, 9, 11, 18, 15, 9, 78, 15, 21, 0)
s = 68: (0, 143, 13, 8, 23, 12, 18, 16, 72, 19, 46, 0)
s = 69: (0, 98, 8, 16, 24, 17, 9, 15, 58, 23, 20, 0)
s = 70: (0, 95, 11, 13, 21, 24, 9, 12, 59, 22, 31, 0)
s = 71: (0, 62, 11, 15, 16, 19, 15, 12, 64, 17, 29, 0)
s = 72: (0, 67, 13, 15, 11, 11, 10, 17, 65, 16, 42, 0)
s = 73: (0, 73, 10, 8, 19, 11, 8, 14, 93, 19, 28, 0)
s = 74: (0, 91, 13, 12, 17, 14, 17, 13, 79, 18, 24, 0)
s = 75: (0, 107, 7, 11, 18, 15, 19, 18, 67, 19, 22, 0)
s = 76: (0, 140, 14, 15, 17, 18, 18, 16, 51, 21, 33, 0)
s = 77: (0, 144, 17, 10, 12, 17, 15, 11, 51, 19, 21, 0)
s = 78: (0, 162, 7, 10, 24, 17, 9, 10, 83, 17, 17, 0)
s = 79: (0, 92, 13, 16, 22, 17, 19, 25, 58, 20, 21, 0)
s = 80: (0, 78, 9, 10, 12, 13, 18, 13, 58, 10, 32, 0)
s = 81: (0, 82, 13, 9, 20, 22, 10, 13, 71, 28, 23, 0)
s = 82: (0, 113, 9, 11, 24, 16, 18, 13, 75, 25, 22, 0)
s = 83: (0, 107, 10, 9, 14, 15, 11, 20, 68, 15, 21, 0)
s = 84: (0, 176, 19, 16, 24, 13, 15, 18, 92, 25, 28, 0)
s = 85: (0, 167, 9, 10, 15, 17, 8, 14, 59, 18, 21, 0)
s = 86: (0, 94, 14, 6, 13, 13, 10, 26, 40, 25, 30, 0)
s = 87: (0, 186, 12, 13, 18, 15, 11, 9, 45, 21, 24, 0)
s = 88: (0, 85, 12, 9, 12, 24, 19, 14, 52, 10, 19, 0)
s = 89: (0, 112, 11, 10, 16, 17, 11, 16, 37, 16, 34, 0)
s = 90: (0, 113, 13, 12, 25, 28, 15, 12, 67, 20, 30, 0)
s = 91: (0, 71, 6, 14, 17, 11, 14, 14, 63, 16, 28, 0)
s = 92: (0, 146, 8, 10, 25, 17, 12, 11, 91, 14, 25, 0)
s = 93: (0, 54, 8, 8, 27, 12, 12, 16, 68, 22, 46, 0)
s = 94: (0, 104, 15, 8, 20, 24, 12, 11, 72, 17, 28, 0)
s = 95: (0, 71, 10, 14, 13, 18, 15, 13, 103, 10, 20, 0)
s = 96: (0, 101, 13, 10, 16, 15, 15, 20, 54, 17, 24, 0)
s = 97: (0, 77, 10, 13, 17, 14, 9, 21, 62, 13, 17, 0)
s = 98: (0, 77, 15, 11, 19, 15, 16, 11, 57, 25, 25, 0)
s = 99: (0, 168, 20, 13, 18, 16, 17, 10, 42, 22, 17, 0)
s = 100: (0, 136, 11, 10, 22, 10, 8, 10, 59, 17, 24, 0)
s = 101: (0, 162, 17, 13, 16, 26, 9, 14, 36, 19, 23, 0)
s = 102: (0, 90, 18, 13, 15, 16, 13, 11, 50, 19, 35, 0)
s = 103: (0, 85, 9, 18, 19, 15, 14, 17, 68, 31, 33, 0)
s = 104: (0, 127, 7, 11, 33, 15, 9, 13, 75, 14, 21, 0)
s = 105: (0, 90, 8, 11, 16, 22, 21, 13, 53, 10, 47, 0)
s = 106: (0, 60, 11, 13, 32, 14, 20, 13, 103, 13, 36, 0)
s = 107: (0, 140, 18, 8, 23, 18, 9, 15, 61, 19, 24, 0)
s = 108: (0, 74, 13, 15, 32, 19, 18, 18, 46, 23, 19, 0)
s = 109: (0, 92, 12, 15, 20, 19, 19, 10, 43, 29, 31, 0)
s = 110: (0, 98, 12, 10, 17, 25, 13, 18, 53, 14, 26, 0)
s = 111: (0, 129, 12, 9, 17, 20, 11, 15, 41, 22, 21, 0)
s = 112: (0, 134, 11, 13, 23, 17, 13, 22, 70, 11, 42, 0)
s = 113: (0, 63, 19, 15, 15, 14, 8, 17, 60, 15, 18, 0)
s = 114: (0, 155, 10, 16, 26, 18, 10, 21, 79, 26, 29, 0)
s = 115: (0, 75, 18, 19, 24, 18, 12, 20, 111, 15, 30, 0)
s = 116: (0, 72, 13, 16, 11, 22, 17, 13, 56, 26, 14, 0)
s = 117: (0, 105, 7, 11, 20, 11, 13, 13, 116, 23, 24, 0)
s = 118: (0, 63, 9, 8, 16, 14, 15, 16, 121, 13, 20, 0)
s = 119: (0, 66, 10, 10, 11, 12, 16, 14, 53, 14, 29, 0)
s = 120: (0, 60, 17, 14, 18, 17, 15, 16, 59, 13, 31, 0)
s = 121: (0, 59, 12, 20, 24, 13, 11, 18, 62, 20, 23, 0)
s = 122: (0, 116, 8, 13, 22, 14, 9, 16, 69, 14, 31, 0)
s = 123: (0, 116, 10, 10, 16, 19, 18, 8, 66, 15, 26, 0)
s = 124: (0, 113, 7, 8, 13, 21, 12, 18, 47, 14, 21, 0)
s = 125: (0, 163, 9, 10, 27, 19, 9, 15, 62, 14, 23, 0)
s = 126: (0, 79, 8, 7, 20, 20, 17, 12, 56, 23, 32, 0)
s = 127: (0, 87, 17, 9, 21, 22, 11, 10, 64, 28, 31, 0)
s = 128: (0, 99, 13, 15, 25, 13, 18, 22, 58, 16, 27, 0)
s = 129: (0, 55, 15, 18, 11, 21, 12, 12, 104, 15, 36, 0)
s = 130: (0, 104, 14, 8, 30, 27, 10, 12, 88, 16, 21, 0)
s = 131: (0, 138, 14, 14, 17, 11, 11, 12, 71, 26, 18, 0)
s = 132: (0, 96, 14, 13, 19, 18, 8, 18, 75, 19, 22, 0)
s = 133: (0, 124, 10, 8, 15, 10, 8, 8, 75, 20, 40, 0)
s = 134: (0, 74, 13, 12, 15, 19, 11, 17, 59, 20, 16, 0)
s = 135: (0, 82, 9, 10, 31, 21, 9, 14, 50, 13, 28, 0)
s = 136: (0, 72, 12, 12, 20, 17, 16, 16, 51, 23, 28, 0)
s = 137: (0, 142, 12, 9, 23, 15, 13, 10, 70, 25, 22, 0)
s = 138: (0, 64, 7, 13, 15, 11, 9, 12, 58, 17, 29, 0)
s = 139: (0, 75, 10, 11, 23, 28, 16, 20, 40, 16, 22, 0)
s = 140: (0, 163, 7, 9, 15, 13, 17, 11, 95, 18, 19, 0)
s = 141: (0, 71, 11, 16, 15, 20, 11, 15, 77, 12, 24, 0)
s = 142: (0, 104, 11, 10, 19, 25, 11, 14, 68, 19, 23, 0)
s = 143: (0, 66, 11, 10, 23, 15, 17, 20, 63, 11, 28, 0)
s = 144: (0, 102, 11, 12, 17, 16, 16, 16, 62, 24, 25, 0)
s = 145: (0, 115, 10, 10, 18, 16, 20, 13, 100, 21, 26, 0)
s = 146: (0, 141, 16, 12, 25, 18, 9, 14, 69, 13, 28, 0)
s = 147: (0, 80, 18, 10, 16, 22, 15, 18, 69, 31, 33, 0)
s = 148: (0, 86, 12, 10, 18, 16, 23, 16, 64, 22, 19, 0)
s = 149: (0, 119, 10, 13, 12, 19, 10, 11, 52, 13, 37, 0)
s = 150: (0, 95, 10, 9, 16, 32, 10, 11, 44, 22, 22, 0)
s = 151: (0, 86, 7, 15, 16, 11, 9, 16, 102, 17, 19, 0)
s = 152: (0, 107, 11, 13, 20, 24, 13, 15, 100, 17, 32, 0)
s = 153: (0, 152, 12, 12, 32, 21, 17, 14, 45, 15, 25, 0)
s = 154: (0, 67, 12, 14, 21, 24, 21, 10, 42, 17, 25, 0)
s = 155: (0, 188, 8, 12, 27, 14, 14, 19, 73, 15, 23, 0)
s = 156: (0, 112, 9, 14, 34, 11, 10, 24, 41, 18, 26, 0)
s = 157: (0, 114, 7, 9, 25, 13, 15, 9, 53, 29, 15, 0)
s = 158: (0, 141, 12, 7, 23, 20, 19, 13, 101, 23, 40, 0)
s = 159: (0, 95, 22, 12, 15, 19, 12, 14, 51, 18, 25, 0)
s = 160: (0, 104, 11, 15, 15, 17, 18, 11, 42, 13, 26, 0)
s = 161: (0, 168, 10, 9, 14, 18, 18, 9, 87, 15, 16, 0)
s = 162: (0, 112, 13, 10, 18, 17, 16, 21, 59, 20, 28, 0)
s = 163: (0, 93, 11, 12, 14, 21, 15, 15, 67, 21, 25, 0)
s = 164: (0, 114, 11, 12, 14, 15, 11, 16, 49, 15, 16, 0)
s = 165: (0, 75, 7, 7, 14, 11, 11, 12, 47, 18, 17, 0)
s = 166: (0, 62, 14, 10, 16, 13, 14, 19, 61, 19, 25, 0)
s = 167: (0, 98, 11, 9, 14, 14, 11, 11, 50, 21, 21, 0)
s = 168: (0, 63, 9, 8, 18, 23, 18, 17, 80, 26, 27, 0)
s = 169: (0, 127, 14, 13, 18, 26, 10, 17, 45, 32, 18, 0)
s = 170: (0, 66, 8, 11, 23, 14, 16, 15, 74, 17, 38, 0)
s = 171: (0, 75, 17, 13, 13, 22, 15, 23, 40, 13, 28, 0)
s = 172: (0, 111, 14, 9, 21, 13, 11, 18, 56, 24, 21, 0)
s = 173: (0, 102, 15, 14, 29, 18, 11, 11, 116, 15, 37, 0)
s = 174: (0, 139, 15, 13, 26, 16, 11, 16, 49, 14, 24, 0)
s = 175: (0, 90, 8, 7, 15, 13, 11, 19, 45, 12, 19, 0)
s = 176: (0, 68, 15, 21, 23, 12, 20, 20, 76, 13, 18, 0)
s = 177: (0, 108, 7, 11, 15, 17, 16, 18, 53, 13, 22, 0)
s = 178: (0, 106, 21, 18, 23, 11, 12, 9, 61, 14, 19, 0)
s = 179: (0, 83, 8, 11, 19, 20, 11, 14, 64, 17, 39, 0)
s = 180: (0, 162, 8, 10, 15, 25, 13, 17, 93, 22, 25, 0)
s = 181: (0, 85, 12, 8, 12, 13, 14, 18, 75, 16, 24, 0)
s = 182: (0, 129, 9, 9, 21, 16, 17, 9, 61, 19, 35, 0)
s = 183: (0, 109, 16, 10, 17, 12, 11, 18, 67, 17, 30, 0)
s = 184: (0, 127, 6, 9, 21, 25, 15, 11, 52, 16, 32, 0)
s = 185: (0, 56, 17, 16, 33, 14, 12, 14, 48, 14, 20, 0)
s = 186: (0, 63, 17, 14, 27, 14, 12, 10, 65, 20, 20, 0)
s = 187: (0, 81, 12, 13, 25, 18, 9, 14, 37, 23, 24, 0)
s = 188: (0, 62, 8, 13, 18, 18, 8, 12, 59, 12, 20, 0)
s = 189: (0, 90, 11, 7, 18, 10, 14, 11, 39, 25, 18, 0)
s = 190: (0, 80, 14, 18, 27, 23, 15, 13, 39, 20, 24, 0)
s = 191: (0, 91, 17, 13, 27, 26, 15, 21, 60, 21, 18, 0)
s = 192: (0, 122, 9, 13, 20, 14, 13, 12, 48, 13, 21, 0)
s = 193: (0, 154, 9, 8, 17, 12, 13, 11, 59, 19, 30, 0)
s = 194: (0, 116, 8, 12, 13, 21, 10, 18, 108, 13, 27, 0)
s = 195: (0, 102, 9, 8, 20, 10, 16, 17, 45, 13, 28, 0)
s = 196: (0, 122, 11, 9, 23, 19, 14, 11, 67, 22, 30, 0)
s = 197: (0, 108, 11, 15, 22, 13, 16, 12, 65, 16, 23, 0)
s = 198: (0, 154, 9, 13, 32, 17, 10, 18, 41, 23, 29, 0)
s = 199: (0, 132, 8, 8, 18, 15, 15, 8, 62, 24, 28, 0)
s = 200: (0, 94, 10, 15, 22, 17, 17, 14, 75, 12, 16, 0)
------------------------------------------------------------------------
RESOURCE k = 2
s = 1: (0, 109, 11, 20, 12, 11, 7, 13, 83, 15, 20, 0)
s = 2: (0, 61, 17, 11, 12, 11, 9, 13, 47, 22, 44, 0)
s = 3: (0, 68, 19, 11, 9, 18, 8, 10, 62, 12, 22, 0)
s = 4: (0, 101, 12, 20, 13, 10, 11, 13, 49, 12, 30, 0)
s = 5: (0, 94, 19, 21, 14, 16, 5, 8, 76, 19, 30, 0)
s = 6: (0, 101, 14, 16, 12, 11, 5, 9, 75, 16, 28, 0)
s = 7: (0, 64, 14, 14, 14, 15, 7, 10, 85, 16, 39, 0)
s = 8: (0, 66, 17, 13, 12, 9, 9, 9, 46, 19, 31, 0)
s = 9: (0, 59, 17, 15, 18, 19, 10, 11, 81, 13, 25, 0)
s = 10: (0, 126, 10, 11, 8, 18, 7, 12, 61, 18, 28, 0)
s = 11: (0, 64, 14, 18, 13, 11, 4, 11, 70, 14, 23, 0)
s = 12: (0, 81, 14, 19, 14, 16, 9, 9, 96, 9, 33, 0)
s = 13: (0, 102, 14, 15, 15, 10, 8, 9, 79, 21, 33, 0)
s = 14: (0, 120, 16, 13, 9, 11, 9, 8, 67, 13, 23, 0)
s = 15: (0, 129, 9, 15, 12, 9, 12, 13, 72, 14, 37, 0)
s = 16: (0, 82, 19, 18, 8, 16, 6, 11, 55, 24, 29, 0)
s = 17: (0, 81, 10, 20, 13, 15, 6, 10, 40, 15, 21, 0)
s = 18: (0, 59, 9, 15, 9, 19, 8, 13, 58, 19, 21, 0)
s = 19: (0, 137, 15, 20, 17, 11, 4, 10, 71, 12, 39, 0)
s = 20: (0, 107, 8, 21, 10, 16, 11, 12, 55, 22, 25, 0)
s = 21: (0, 137, 14, 12, 15, 9, 8, 14, 59, 13, 24, 0)
s = 22: (0, 152, 10, 15, 10, 14, 9, 13, 72, 19, 39, 0)
s = 23: (0, 49, 10, 15, 8, 13, 11, 12, 47, 13, 22, 0)
s = 24: (0, 85, 18, 19, 16, 18, 8, 12, 51, 14, 40, 0)
s = 25: (0, 108, 13, 11, 16, 9, 7, 9, 46, 15, 27, 0)
s = 26: (0, 128, 14, 24, 13, 13, 10, 11, 83, 19, 28, 0)
s = 27: (0, 94, 14, 10, 12, 15, 6, 14, 89, 15, 28, 0)
s = 28: (0, 68, 17, 14, 7, 15, 8, 15, 76, 14, 28, 0)
s = 29: (0, 79, 18, 14, 10, 19, 5, 6, 51, 13, 31, 0)
s = 30: (0, 84, 12, 21, 11, 13, 7, 7, 48, 15, 51, 0)
s = 31: (0, 105, 9, 11, 14, 12, 7, 6, 54, 12, 34, 0)
s = 32: (0, 64, 13, 23, 13, 18, 9, 10, 69, 25, 35, 0)
s = 33: (0, 101, 10, 16, 14, 15, 5, 8, 60, 15, 28, 0)
s = 34: (0, 67, 12, 17, 15, 13, 9, 11, 59, 15, 40, 0)
s = 35: (0, 65, 11, 17, 12, 13, 6, 8, 71, 24, 23, 0)
s = 36: (0, 125, 18, 17, 11, 24, 8, 10, 53, 13, 24, 0)
s = 37: (0, 104, 13, 18, 15, 23, 10, 9, 57, 12, 18, 0)
s = 38: (0, 120, 11, 20, 12, 11, 11, 8, 67, 10, 21, 0)
s = 39: (0, 70, 12, 22, 8, 14, 9, 8, 74, 22, 29, 0)
s = 40: (0, 111, 10, 9, 14, 10, 7, 15, 72, 9, 21, 0)
s = 41: (0, 102, 14, 9, 13, 14, 8, 12, 58, 17, 31, 0)
s = 42: (0, 82, 19, 10, 11, 11, 9, 12, 97, 16, 21, 0)
s = 43: (0, 107, 13, 12, 11, 11, 9, 16, 65, 16, 28, 0)
s = 44: (0, 75, 12, 15, 8, 8, 8, 7, 73, 16, 22, 0)
s = 45: (0, 84, 17, 23, 13, 12, 10, 8, 40, 12, 33, 0)
s = 46: (0, 82, 9, 16, 20, 10, 6, 14, 50, 18, 17, 0)
s = 47: (0, 138, 19, 23, 9, 11, 6, 13, 88, 22, 33, 0)
s = 48: (0, 139, 12, 10, 13, 15, 8, 11, 57, 11, 18, 0)
s = 49: (0, 81, 11, 21, 19, 17, 6, 12, 55, 13, 28, 0)
s = 50: (0, 131, 19, 12, 12, 17, 6, 10, 54, 10, 20, 0)
s = 51: (0, 62, 10, 17, 12, 11, 7, 7, 64, 20, 28, 0)
s = 52: (0, 96, 13, 19, 14, 13, 10, 11, 73, 13, 22, 0)
s = 53: (0, 98, 11, 12, 17, 17, 9, 8, 83, 11, 45, 0)
s = 54: (0, 128, 11, 9, 15, 8, 5, 15, 71, 18, 25, 0)
s = 55: (0, 93, 10, 10, 18, 15, 8, 7, 59, 19, 30, 0)
s = 56: (0, 70, 10, 15, 11, 19, 9, 14, 43, 10, 27, 0)
s = 57: (0, 66, 11, 13, 16, 17, 6, 8, 45, 18, 58, 0)
s = 58: (0, 97, 14, 15, 9, 13, 10, 10, 45, 11, 19, 0)
s = 59: (0, 119, 19, 13, 9, 18, 9, 8, 65, 18, 54, 0)
s = 60: (0, 153, 16, 13, 9, 14, 7, 15, 40, 11, 27, 0)
s = 61: (0, 73, 16, 12, 15, 18, 8, 13, 35, 21, 31, 0)
s = 62: (0, 118, 18, 13, 12, 12, 7, 10, 73, 16, 35, 0)
s = 63: (0, 105, 20, 13, 7, 18, 5, 7, 76, 17, 35, 0)
s = 64: (0, 129, 15, 10, 16, 15, 8, 6, 67, 12, 20, 0)
s = 65: (0, 75, 16, 15, 9, 15, 9, 11, 37, 11, 24, 0)
s = 66: (0, 80, 12, 17, 14, 10, 9, 10, 99, 10, 27, 0)
s = 67: (0, 114, 16, 12, 7, 14, 8, 7, 78, 13, 23, 0)
s = 68: (0, 126, 16, 11, 14, 9, 10, 11, 72, 16, 50, 0)
s = 69: (0, 87, 10, 22, 15, 13, 5, 11, 58, 19, 22, 0)
s = 70: (0, 84, 14, 18, 14, 18, 5, 8, 59, 18, 33, 0)
s = 71: (0, 55, 13, 21, 10, 15, 8, 8, 64, 14, 31, 0)
s = 72: (0, 59, 17, 20, 7, 8, 6, 12, 65, 13, 45, 0)
s = 73: (0, 65, 13, 11, 12, 8, 5, 10, 93, 16, 30, 0)
s = 74: (0, 81, 16, 17, 11, 11, 9, 10, 79, 15, 26, 0)
s = 75: (0, 95, 9, 14, 11, 12, 10, 13, 67, 16, 23, 0)
s = 76: (0, 123, 18, 20, 11, 14, 10, 11, 51, 18, 36, 0)
s = 77: (0, 127, 21, 13, 8, 13, 8, 8, 51, 16, 23, 0)
s = 78: (0, 143, 9, 14, 15, 13, 5, 7, 83, 14, 18, 0)
s = 79: (0, 82, 16, 22, 14, 13, 10, 18, 58, 17, 22, 0)
s = 80: (0, 69, 11, 13, 8, 10, 10, 9, 58, 8, 35, 0)
s = 81: (0, 72, 17, 12, 13, 17, 6, 9, 71, 24, 25, 0)
s = 82: (0, 100, 11, 14, 15, 12, 10, 9, 75, 21, 24, 0)
s = 83: (0, 94, 12, 13, 9, 12, 6, 14, 68, 12, 22, 0)
s = 84: (0, 155, 24, 21, 15, 10, 8, 13, 92, 21, 30, 0)
s = 85: (0, 148, 12, 13, 9, 13, 5, 10, 59, 15, 22, 0)
s = 86: (0, 83, 18, 8, 8, 10, 6, 19, 40, 21, 32, 0)
s = 87: (0, 164, 15, 18, 12, 11, 6, 6, 45, 18, 26, 0)
s = 88: (0, 75, 15, 12, 8, 18, 11, 10, 52, 8, 21, 0)
s = 89: (0, 99, 13, 13, 10, 13, 6, 11, 37, 13, 37, 0)
s = 90: (0, 100, 16, 16, 16, 22, 8, 9, 67, 17, 32, 0)
s = 91: (0, 63, 8, 19, 11, 9, 8, 10, 63, 13, 30, 0)
s = 92: (0, 128, 11, 13, 16, 13, 7, 8, 91, 12, 27, 0)
s = 93: (0, 48, 10, 11, 17, 9, 7, 12, 68, 18, 50, 0)
s = 94: (0, 92, 20, 11, 13, 19, 7, 8, 72, 14, 30, 0)
s = 95: (0, 62, 12, 19, 9, 14, 8, 9, 103, 9, 22, 0)
s = 96: (0, 89, 17, 14, 11, 12, 9, 14, 54, 14, 26, 0)
s = 97: (0, 68, 13, 17, 11, 11, 5, 15, 62, 11, 19, 0)
s = 98: (0, 68, 19, 15, 12, 11, 9, 8, 57, 21, 27, 0)
s = 99: (0, 149, 25, 17, 12, 13, 9, 7, 42, 18, 18, 0)
s = 100: (0, 120, 14, 13, 14, 8, 4, 7, 59, 14, 26, 0)
s = 101: (0, 143, 21, 17, 10, 20, 5, 10, 36, 16, 25, 0)
s = 102: (0, 79, 22, 18, 9, 12, 7, 8, 50, 16, 37, 0)
s = 103: (0, 75, 11, 24, 12, 12, 8, 12, 68, 26, 36, 0)
s = 104: (0, 112, 9, 14, 21, 12, 5, 9, 75, 11, 22, 0)
s = 105: (0, 80, 10, 15, 10, 17, 12, 10, 53, 8, 51, 0)
s = 106: (0, 53, 14, 18, 20, 11, 11, 9, 103, 11, 38, 0)
s = 107: (0, 124, 23, 10, 14, 14, 5, 11, 61, 16, 26, 0)
s = 108: (0, 65, 16, 20, 20, 14, 10, 13, 46, 19, 20, 0)
s = 109: (0, 81, 15, 20, 13, 15, 10, 7, 43, 24, 34, 0)
s = 110: (0, 86, 15, 13, 11, 19, 7, 13, 53, 12, 28, 0)
s = 111: (0, 114, 15, 13, 11, 15, 6, 11, 41, 19, 22, 0)
s = 112: (0, 119, 13, 18, 15, 13, 7, 16, 70, 9, 46, 0)
s = 113: (0, 56, 24, 20, 10, 11, 5, 12, 60, 12, 19, 0)
s = 114: (0, 137, 13, 21, 17, 14, 6, 15, 79, 22, 31, 0)
s = 115: (0, 66, 23, 26, 15, 14, 7, 15, 111, 12, 33, 0)
s = 116: (0, 64, 17, 21, 7, 17, 9, 9, 56, 22, 15, 0)
s = 117: (0, 93, 9, 14, 13, 8, 7, 10, 116, 19, 26, 0)
s = 118: (0, 56, 11, 11, 10, 11, 8, 12, 121, 11, 22, 0)
s = 119: (0, 58, 13, 13, 7, 10, 9, 10, 53, 12, 31, 0)
s = 120: (0, 53, 22, 19, 12, 13, 8, 12, 59, 11, 34, 0)
s = 121: (0, 53, 15, 27, 15, 10, 6, 13, 62, 17, 25, 0)
s = 122: (0, 102, 10, 18, 14, 11, 5, 12, 69, 11, 34, 0)
s = 123: (0, 102, 12, 13, 10, 14, 10, 6, 66, 13, 28, 0)
s = 124: (0, 100, 9, 11, 9, 16, 7, 13, 47, 12, 23, 0)
s = 125: (0, 144, 12, 14, 17, 14, 5, 11, 62, 12, 25, 0)
s = 126: (0, 69, 10, 10, 13, 16, 10, 9, 56, 19, 34, 0)
s = 127: (0, 77, 21, 11, 13, 17, 6, 7, 64, 24, 33, 0)
s = 128: (0, 88, 16, 20, 16, 10, 10, 16, 58, 14, 29, 0)
s = 129: (0, 49, 19, 24, 7, 16, 7, 9, 104, 13, 39, 0)
s = 130: (0, 92, 17, 11, 19, 21, 6, 9, 88, 13, 23, 0)
s = 131: (0, 122, 17, 19, 11, 9, 6, 9, 71, 22, 19, 0)
s = 132: (0, 85, 18, 17, 12, 14, 5, 13, 75, 16, 24, 0)
s = 133: (0, 109, 13, 11, 10, 8, 5, 6, 75, 17, 43, 0)
s = 134: (0, 65, 17, 17, 10, 15, 6, 12, 59, 17, 17, 0)
s = 135: (0, 72, 11, 14, 20, 16, 5, 10, 50, 11, 30, 0)
s = 136: (0, 64, 15, 16, 13, 13, 9, 11, 51, 19, 30, 0)
s = 137: (0, 125, 15, 12, 15, 11, 7, 7, 70, 21, 24, 0)
s = 138: (0, 57, 9, 17, 9, 8, 5, 9, 58, 14, 31, 0)
s = 139: (0, 66, 12, 15, 15, 22, 9, 15, 40, 14, 23, 0)
s = 140: (0, 144, 9, 12, 9, 10, 9, 8, 95, 15, 21, 0)
s = 141: (0, 63, 14, 22, 10, 15, 6, 11, 77, 10, 26, 0)
s = 142: (0, 91, 14, 13, 12, 20, 6, 10, 68, 16, 25, 0)
s = 143: (0, 59, 14, 14, 15, 11, 9, 14, 63, 9, 30, 0)
s = 144: (0, 90, 14, 16, 11, 12, 9, 12, 62, 20, 27, 0)
s = 145: (0, 101, 12, 13, 12, 12, 11, 9, 100, 17, 28, 0)
s = 146: (0, 125, 20, 17, 16, 14, 5, 10, 69, 11, 30, 0)
s = 147: (0, 71, 22, 14, 10, 17, 8, 13, 69, 26, 35, 0)
s = 148: (0, 76, 15, 13, 12, 13, 13, 12, 64, 18, 20, 0)
s = 149: (0, 105, 12, 18, 8, 15, 6, 8, 52, 11, 39, 0)
s = 150: (0, 84, 12, 12, 10, 25, 6, 8, 44, 18, 23, 0)
s = 151: (0, 76, 9, 21, 10, 8, 5, 12, 102, 14, 21, 0)
s = 152: (0, 95, 14, 17, 13, 18, 7, 11, 100, 14, 35, 0)
s = 153: (0, 134, 16, 16, 20, 16, 10, 10, 45, 13, 27, 0)
s = 154: (0, 59, 16, 19, 13, 18, 12, 7, 42, 14, 27, 0)
s = 155: (0, 166, 10, 16, 17, 11, 8, 14, 73, 12, 25, 0)
s = 156: (0, 99, 12, 18, 22, 8, 6, 17, 41, 15, 28, 0)
s = 157: (0, 101, 9, 12, 16, 10, 8, 6, 53, 24, 16, 0)
s = 158: (0, 125, 16, 9, 15, 15, 10, 10, 101, 19, 43, 0)
s = 159: (0, 84, 28, 16, 10, 15, 7, 10, 51, 15, 26, 0)
s = 160: (0, 91, 14, 20, 10, 13, 10, 8, 42, 11, 28, 0)
s = 161: (0, 149, 13, 13, 9, 14, 10, 7, 87, 12, 17, 0)
s = 162: (0, 99, 16, 13, 12, 13, 9, 15, 59, 17, 30, 0)
s = 163: (0, 82, 14, 16, 9, 17, 8, 11, 67, 18, 27, 0)
s = 164: (0, 101, 13, 16, 9, 11, 6, 11, 49, 13, 18, 0)
s = 165: (0, 66, 9, 9, 9, 9, 6, 9, 47, 15, 18, 0)
s = 166: (0, 55, 17, 13, 10, 10, 8, 14, 61, 16, 27, 0)
s = 167: (0, 87, 13, 12, 9, 11, 6, 8, 50, 18, 23, 0)
s = 168: (0, 55, 11, 10, 11, 18, 10, 13, 80, 22, 30, 0)
s = 169: (0, 112, 18, 18, 12, 20, 5, 12, 45, 26, 19, 0)
s = 170: (0, 59, 10, 15, 15, 11, 9, 11, 74, 14, 41, 0)
s = 171: (0, 66, 22, 17, 8, 17, 8, 17, 40, 11, 30, 0)
s = 172: (0, 98, 18, 12, 13, 10, 6, 13, 56, 20, 23, 0)
s = 173: (0, 90, 19, 18, 19, 14, 6, 8, 116, 13, 40, 0)
s = 174: (0, 123, 19, 18, 17, 12, 6, 11, 49, 12, 26, 0)
s = 175: (0, 79, 11, 9, 9, 10, 6, 13, 45, 10, 21, 0)
s = 176: (0, 60, 20, 29, 15, 9, 11, 14, 76, 11, 20, 0)
s = 177: (0, 95, 9, 15, 10, 13, 9, 13, 53, 11, 24, 0)
s = 178: (0, 93, 27, 24, 15, 8, 7, 6, 61, 12, 20, 0)
s = 179: (0, 73, 11, 15, 12, 16, 6, 10, 64, 14, 42, 0)
s = 180: (0, 143, 10, 14, 9, 20, 7, 12, 93, 18, 27, 0)
s = 181: (0, 75, 15, 11, 8, 10, 8, 13, 75, 13, 26, 0)
s = 182: (0, 114, 12, 12, 13, 12, 9, 6, 61, 16, 37, 0)
s = 183: (0, 96, 21, 14, 11, 9, 6, 13, 67, 15, 32, 0)
s = 184: (0, 112, 8, 12, 14, 19, 8, 8, 52, 13, 34, 0)
s = 185: (0, 50, 21, 22, 21, 11, 7, 10, 48, 12, 21, 0)
s = 186: (0, 56, 21, 19, 18, 11, 7, 7, 65, 17, 21, 0)
s = 187: (0, 72, 15, 17, 16, 14, 5, 10, 37, 19, 26, 0)
s = 188: (0, 54, 9, 17, 12, 14, 4, 9, 59, 10, 21, 0)
s = 189: (0, 80, 14, 10, 12, 8, 8, 8, 39, 21, 19, 0)
s = 190: (0, 70, 17, 25, 17, 18, 9, 10, 39, 17, 25, 0)
s = 191: (0, 81, 21, 18, 17, 20, 8, 15, 60, 18, 19, 0)
s = 192: (0, 108, 12, 17, 13, 11, 7, 9, 48, 11, 22, 0)
s = 193: (0, 136, 12, 11, 11, 9, 7, 8, 59, 16, 33, 0)
s = 194: (0, 102, 11, 16, 8, 16, 5, 13, 108, 11, 29, 0)
s = 195: (0, 90, 12, 11, 13, 8, 9, 12, 45, 11, 30, 0)
s = 196: (0, 108, 14, 12, 14, 15, 8, 8, 67, 19, 32, 0)
s = 197: (0, 95, 14, 21, 14, 10, 9, 9, 65, 14, 24, 0)
s = 198: (0, 136, 12, 17, 20, 13, 6, 13, 41, 20, 31, 0)
s = 199: (0, 116, 10, 10, 11, 12, 8, 6, 62, 20, 31, 0)
s = 200: (0, 83, 13, 20, 14, 13, 9, 10, 75, 10, 17, 0)
************************************************************************
ES/LS-VALUES:
jobnr.   ES(i)    LS(i)
------------------------------------------------------------------------
  0        0        0
  1        0       53
  2        0       67
  3        0       70
  4       11       65
  5       12       73
  6       12       67
  7       12       70
  8       13       69
  9       13       75
 10       13       72
 11       20       77
************************************************************************
BIG-M-VALUES:
M1 = 42, M2 = 354
************************************************************************
